w = 29;
n = 24;
measures = [|3, 3,
|3, 4,
|3, 5,
|3, 6,
|3, 7,
|3, 8,
|3, 9,
|3, 10,
|3, 11,
|3, 15,
|3, 18,
|3, 20,
|4, 3,
|4, 4,
|4, 5,
|4, 6,
|4, 7,
|4, 9,
|4, 15,
|4, 18,
|4, 20,
|5, 4,
|5, 8,
|5, 17,
|];
initial_x = [0, 3, 6, 9, 12, 15, 18, 21, 24, 0, 3, 6, 9, 13, 17, 21, 25, 0, 4, 8, 12, 16, 21, 0];
initial_y = [0, 0, 0, 0, 0, 0, 0, 0, 0, 11, 11, 11, 11, 11, 11, 11, 11, 31, 31, 31, 31, 31, 31, 51];